727318.0
1237
0 1 3 4 5 10 11 13 15 16 17 18 19 20 21 22 24 25 26 27 28 29 31 33 34 36 37 38 39 40 42 43 44 46 47 49 50 51 53 54 55 56 57 60 62 63 64 65 66 67 70 71 72 73 74 78 79 82 83 84 86 90 91 93 94 95 96 97 98 99 